936609
936609
936609
936609
936609
936609
936609
936609
929314
929314
929314
922770
913438
913438
913438
904013
904013
904013
904013
904013
901048
890536
890536
890536
890536
888646
877356
877356
877356
877356
877356
871762
871548
861809
861809
861809
861809
861809
861809
860441
858216
858216
850236
850236
850236
848661
848661
841787
841787
841787
841787
840491
837782
837782
837511
837511
837511
837511
834650
828032
828032
828032
828032
828032
828032
828032
828032
828032
828032
811797
811797
811797
811797
811797
811797
806917
806917
806917
806917
806206
806206
806206
806206
806206
806206
806206
806206
806206
806206
806206
806206
806206
806206
806206
806206
806206
806206
806206
805255
805255
